db/data/21095276451418610963897115679562921265.z3.out
-------------------
2500.228761756
